* #variable= 896 #constraint= 1058 
+1 x561 -1 x33 = 0 ;
+1 x561 -1 x833 = 0 ;
-1 x33 +1 x1 >= 0 ;
-1 x33 +1 x17 >= 0 ;
+1 x33 -1 x1 -1 x17 >= -1 ;
+1 x33 +2 x49 +4 x65 +8 x81 +16 x97 +32 x113 +64 x129 +128 x145 +256 x161 +512 x177 +1024 x193 +2048 x209 +4096 x225 +8192 x241 +16384 x257 +32768 x273 +2 x34 +4 x50 +8 x66 +16 x82 +32 x98 +64 x114 +128 x130 +256 x146 +512 x162 +1024 x178 +2048 x194 +4096 x210 +8192 x226 +16384 x242 +32768 x258 +65536 x274 +4 x35 +8 x51 +16 x67 +32 x83 +64 x99 +128 x115 +256 x131 +512 x147 +1024 x163 +2048 x179 +4096 x195 +8192 x211 +16384 x227 +32768 x243 +65536 x259 +131072 x275 +8 x36 +16 x52 +32 x68 +64 x84 +128 x100 +256 x116 +512 x132 +1024 x148 +2048 x164 +4096 x180 +8192 x196 +16384 x212 +32768 x228 +65536 x244 +131072 x260 +262144 x276 +16 x37 +32 x53 +64 x69 +128 x85 +256 x101 +512 x117 +1024 x133 +2048 x149 +4096 x165 +8192 x181 +16384 x197 +32768 x213 +65536 x229 +131072 x245 +262144 x261 +524288 x277 +32 x38 +64 x54 +128 x70 +256 x86 +512 x102 +1024 x118 +2048 x134 +4096 x150 +8192 x166 +16384 x182 +32768 x198 +65536 x214 +131072 x230 +262144 x246 +524288 x262 +1048576 x278 +64 x39 +128 x55 +256 x71 +512 x87 +1024 x103 +2048 x119 +4096 x135 +8192 x151 +16384 x167 +32768 x183 +65536 x199 +131072 x215 +262144 x231 +524288 x247 +1048576 x263 +2097152 x279 +128 x40 +256 x56 +512 x72 +1024 x88 +2048 x104 +4096 x120 +8192 x136 +16384 x152 +32768 x168 +65536 x184 +131072 x200 +262144 x216 +524288 x232 +1048576 x248 +2097152 x264 +4194304 x280 +256 x41 +512 x57 +1024 x73 +2048 x89 +4096 x105 +8192 x121 +16384 x137 +32768 x153 +65536 x169 +131072 x185 +262144 x201 +524288 x217 +1048576 x233 +2097152 x249 +4194304 x265 +8388608 x281 +512 x42 +1024 x58 +2048 x74 +4096 x90 +8192 x106 +16384 x122 +32768 x138 +65536 x154 +131072 x170 +262144 x186 +524288 x202 +1048576 x218 +2097152 x234 +4194304 x250 +8388608 x266 +16777216 x282 +1024 x43 +2048 x59 +4096 x75 +8192 x91 +16384 x107 +32768 x123 +65536 x139 +131072 x155 +262144 x171 +524288 x187 +1048576 x203 +2097152 x219 +4194304 x235 +8388608 x251 +16777216 x267 +33554432 x283 +2048 x44 +4096 x60 +8192 x76 +16384 x92 +32768 x108 +65536 x124 +131072 x140 +262144 x156 +524288 x172 +1048576 x188 +2097152 x204 +4194304 x220 +8388608 x236 +16777216 x252 +33554432 x268 +67108864 x284 +4096 x45 +8192 x61 +16384 x77 +32768 x93 +65536 x109 +131072 x125 +262144 x141 +524288 x157 +1048576 x173 +2097152 x189 +4194304 x205 +8388608 x221 +16777216 x237 +33554432 x253 +67108864 x269 +134217728 x285 +8192 x46 +16384 x62 +32768 x78 +65536 x94 +131072 x110 +262144 x126 +524288 x142 +1048576 x158 +2097152 x174 +4194304 x190 +8388608 x206 +16777216 x222 +33554432 x238 +67108864 x254 +134217728 x270 +268435456 x286 +16384 x47 +32768 x63 +65536 x79 +131072 x95 +262144 x111 +524288 x127 +1048576 x143 +2097152 x159 +4194304 x175 +8388608 x191 +16777216 x207 +33554432 x223 +67108864 x239 +134217728 x255 +268435456 x271 +536870912 x287 +32768 x48 +65536 x64 +131072 x80 +262144 x96 +524288 x112 +1048576 x128 +2097152 x144 +4194304 x160 +8388608 x176 +16777216 x192 +33554432 x208 +67108864 x224 +134217728 x240 +268435456 x256 +536870912 x272 +1073741824 x288 -1 x865 -2 x866 -4 x867 -8 x868 -16 x869 -32 x870 -64 x871 -128 x872 -256 x873 -512 x874 -1024 x875 -2048 x876 -4096 x877 -8192 x878 -16384 x879 -32768 x880 -65536 x881 -131072 x882 -262144 x883 -524288 x884 -1048576 x885 -2097152 x886 -4194304 x887 -8388608 x888 -16777216 x889 -33554432 x890 -67108864 x891 -134217728 x892 -268435456 x893 -536870912 x894 -1073741824 x895 -2147483648 x896 = 0; 
+1 x865 -1 x833 +2 x866 -2 x834 +4 x867 -4 x835 +8 x868 -8 x836 +16 x869 -16 x837 +32 x870 -32 x838 +64 x871 -64 x839 +128 x872 -128 x840 +256 x873 -256 x841 +512 x874 -512 x842 +1024 x875 -1024 x843 +2048 x876 -2048 x844 +4096 x877 -4096 x845 +8192 x878 -8192 x846 +16384 x879 -16384 x847 +32768 x880 -32768 x848 +65536 x881 -65536 x849 +131072 x882 -131072 x850 +262144 x883 -262144 x851 +524288 x884 -524288 x852 +1048576 x885 -1048576 x853 +2097152 x886 -2097152 x854 +4194304 x887 -4194304 x855 +8388608 x888 -8388608 x856 +16777216 x889 -16777216 x857 +33554432 x890 -33554432 x858 +67108864 x891 -67108864 x859 +134217728 x892 -134217728 x860 +268435456 x893 -268435456 x861 +536870912 x894 -536870912 x862 +1073741824 x895 -1073741824 x863 +2147483648 x896 -2147483648 x864 >= 1 ;
+1 x578 -1 x49 = 0 ;
+2 x290 +1 x562 -1 x34 -1 x578 = 0 ;
+1 x562 -1 x834 = 0 ;
-1 x49 +1 x2 >= 0 ;
-1 x49 +1 x17 >= 0 ;
+1 x49 -1 x2 -1 x17 >= -1 ;
-1 x34 +1 x1 >= 0 ;
-1 x34 +1 x18 >= 0 ;
+1 x34 -1 x1 -1 x18 >= -1 ;
+1 x595 -1 x65 = 0 ;
+2 x307 +1 x579 -1 x50 -1 x290 -1 x595 = 0 ;
+2 x291 +1 x563 -1 x35 -1 x579 = 0 ;
+1 x563 -1 x835 = 0 ;
-1 x65 +1 x3 >= 0 ;
-1 x65 +1 x17 >= 0 ;
+1 x65 -1 x3 -1 x17 >= -1 ;
-1 x50 +1 x2 >= 0 ;
-1 x50 +1 x18 >= 0 ;
+1 x50 -1 x2 -1 x18 >= -1 ;
-1 x35 +1 x1 >= 0 ;
-1 x35 +1 x19 >= 0 ;
+1 x35 -1 x1 -1 x19 >= -1 ;
+1 x612 -1 x81 = 0 ;
+2 x324 +1 x596 -1 x66 -1 x307 -1 x612 = 0 ;
+2 x308 +1 x580 -1 x51 -1 x291 -1 x596 = 0 ;
+2 x292 +1 x564 -1 x36 -1 x580 = 0 ;
+1 x564 -1 x836 = 0 ;
-1 x81 +1 x4 >= 0 ;
-1 x81 +1 x17 >= 0 ;
+1 x81 -1 x4 -1 x17 >= -1 ;
-1 x66 +1 x3 >= 0 ;
-1 x66 +1 x18 >= 0 ;
+1 x66 -1 x3 -1 x18 >= -1 ;
-1 x51 +1 x2 >= 0 ;
-1 x51 +1 x19 >= 0 ;
+1 x51 -1 x2 -1 x19 >= -1 ;
-1 x36 +1 x1 >= 0 ;
-1 x36 +1 x20 >= 0 ;
+1 x36 -1 x1 -1 x20 >= -1 ;
+1 x629 -1 x97 = 0 ;
+2 x341 +1 x613 -1 x82 -1 x324 -1 x629 = 0 ;
+2 x325 +1 x597 -1 x67 -1 x308 -1 x613 = 0 ;
+2 x309 +1 x581 -1 x52 -1 x292 -1 x597 = 0 ;
+2 x293 +1 x565 -1 x37 -1 x581 = 0 ;
+1 x565 -1 x837 = 0 ;
-1 x97 +1 x5 >= 0 ;
-1 x97 +1 x17 >= 0 ;
+1 x97 -1 x5 -1 x17 >= -1 ;
-1 x82 +1 x4 >= 0 ;
-1 x82 +1 x18 >= 0 ;
+1 x82 -1 x4 -1 x18 >= -1 ;
-1 x67 +1 x3 >= 0 ;
-1 x67 +1 x19 >= 0 ;
+1 x67 -1 x3 -1 x19 >= -1 ;
-1 x52 +1 x2 >= 0 ;
-1 x52 +1 x20 >= 0 ;
+1 x52 -1 x2 -1 x20 >= -1 ;
-1 x37 +1 x1 >= 0 ;
-1 x37 +1 x21 >= 0 ;
+1 x37 -1 x1 -1 x21 >= -1 ;
+1 x646 -1 x113 = 0 ;
+2 x358 +1 x630 -1 x98 -1 x341 -1 x646 = 0 ;
+2 x342 +1 x614 -1 x83 -1 x325 -1 x630 = 0 ;
+2 x326 +1 x598 -1 x68 -1 x309 -1 x614 = 0 ;
+2 x310 +1 x582 -1 x53 -1 x293 -1 x598 = 0 ;
+2 x294 +1 x566 -1 x38 -1 x582 = 0 ;
+1 x566 -1 x838 = 0 ;
-1 x113 +1 x6 >= 0 ;
-1 x113 +1 x17 >= 0 ;
+1 x113 -1 x6 -1 x17 >= -1 ;
-1 x98 +1 x5 >= 0 ;
-1 x98 +1 x18 >= 0 ;
+1 x98 -1 x5 -1 x18 >= -1 ;
-1 x83 +1 x4 >= 0 ;
-1 x83 +1 x19 >= 0 ;
+1 x83 -1 x4 -1 x19 >= -1 ;
-1 x68 +1 x3 >= 0 ;
-1 x68 +1 x20 >= 0 ;
+1 x68 -1 x3 -1 x20 >= -1 ;
-1 x53 +1 x2 >= 0 ;
-1 x53 +1 x21 >= 0 ;
+1 x53 -1 x2 -1 x21 >= -1 ;
-1 x38 +1 x1 >= 0 ;
-1 x38 +1 x22 >= 0 ;
+1 x38 -1 x1 -1 x22 >= -1 ;
+1 x663 -1 x129 = 0 ;
+2 x375 +1 x647 -1 x114 -1 x358 -1 x663 = 0 ;
+2 x359 +1 x631 -1 x99 -1 x342 -1 x647 = 0 ;
+2 x343 +1 x615 -1 x84 -1 x326 -1 x631 = 0 ;
+2 x327 +1 x599 -1 x69 -1 x310 -1 x615 = 0 ;
+2 x311 +1 x583 -1 x54 -1 x294 -1 x599 = 0 ;
+2 x295 +1 x567 -1 x39 -1 x583 = 0 ;
+1 x567 -1 x839 = 0 ;
-1 x129 +1 x7 >= 0 ;
-1 x129 +1 x17 >= 0 ;
+1 x129 -1 x7 -1 x17 >= -1 ;
-1 x114 +1 x6 >= 0 ;
-1 x114 +1 x18 >= 0 ;
+1 x114 -1 x6 -1 x18 >= -1 ;
-1 x99 +1 x5 >= 0 ;
-1 x99 +1 x19 >= 0 ;
+1 x99 -1 x5 -1 x19 >= -1 ;
-1 x84 +1 x4 >= 0 ;
-1 x84 +1 x20 >= 0 ;
+1 x84 -1 x4 -1 x20 >= -1 ;
-1 x69 +1 x3 >= 0 ;
-1 x69 +1 x21 >= 0 ;
+1 x69 -1 x3 -1 x21 >= -1 ;
-1 x54 +1 x2 >= 0 ;
-1 x54 +1 x22 >= 0 ;
+1 x54 -1 x2 -1 x22 >= -1 ;
-1 x39 +1 x1 >= 0 ;
-1 x39 +1 x23 >= 0 ;
+1 x39 -1 x1 -1 x23 >= -1 ;
+1 x680 -1 x145 = 0 ;
+2 x392 +1 x664 -1 x130 -1 x375 -1 x680 = 0 ;
+2 x376 +1 x648 -1 x115 -1 x359 -1 x664 = 0 ;
+2 x360 +1 x632 -1 x100 -1 x343 -1 x648 = 0 ;
+2 x344 +1 x616 -1 x85 -1 x327 -1 x632 = 0 ;
+2 x328 +1 x600 -1 x70 -1 x311 -1 x616 = 0 ;
+2 x312 +1 x584 -1 x55 -1 x295 -1 x600 = 0 ;
+2 x296 +1 x568 -1 x40 -1 x584 = 0 ;
+1 x568 -1 x840 = 0 ;
-1 x145 +1 x8 >= 0 ;
-1 x145 +1 x17 >= 0 ;
+1 x145 -1 x8 -1 x17 >= -1 ;
-1 x130 +1 x7 >= 0 ;
-1 x130 +1 x18 >= 0 ;
+1 x130 -1 x7 -1 x18 >= -1 ;
-1 x115 +1 x6 >= 0 ;
-1 x115 +1 x19 >= 0 ;
+1 x115 -1 x6 -1 x19 >= -1 ;
-1 x100 +1 x5 >= 0 ;
-1 x100 +1 x20 >= 0 ;
+1 x100 -1 x5 -1 x20 >= -1 ;
-1 x85 +1 x4 >= 0 ;
-1 x85 +1 x21 >= 0 ;
+1 x85 -1 x4 -1 x21 >= -1 ;
-1 x70 +1 x3 >= 0 ;
-1 x70 +1 x22 >= 0 ;
+1 x70 -1 x3 -1 x22 >= -1 ;
-1 x55 +1 x2 >= 0 ;
-1 x55 +1 x23 >= 0 ;
+1 x55 -1 x2 -1 x23 >= -1 ;
-1 x40 +1 x1 >= 0 ;
-1 x40 +1 x24 >= 0 ;
+1 x40 -1 x1 -1 x24 >= -1 ;
+1 x697 -1 x161 = 0 ;
+2 x409 +1 x681 -1 x146 -1 x392 -1 x697 = 0 ;
+2 x393 +1 x665 -1 x131 -1 x376 -1 x681 = 0 ;
+2 x377 +1 x649 -1 x116 -1 x360 -1 x665 = 0 ;
+2 x361 +1 x633 -1 x101 -1 x344 -1 x649 = 0 ;
+2 x345 +1 x617 -1 x86 -1 x328 -1 x633 = 0 ;
+2 x329 +1 x601 -1 x71 -1 x312 -1 x617 = 0 ;
+2 x313 +1 x585 -1 x56 -1 x296 -1 x601 = 0 ;
+2 x297 +1 x569 -1 x41 -1 x585 = 0 ;
+1 x569 -1 x841 = 0 ;
-1 x161 +1 x9 >= 0 ;
-1 x161 +1 x17 >= 0 ;
+1 x161 -1 x9 -1 x17 >= -1 ;
-1 x146 +1 x8 >= 0 ;
-1 x146 +1 x18 >= 0 ;
+1 x146 -1 x8 -1 x18 >= -1 ;
-1 x131 +1 x7 >= 0 ;
-1 x131 +1 x19 >= 0 ;
+1 x131 -1 x7 -1 x19 >= -1 ;
-1 x116 +1 x6 >= 0 ;
-1 x116 +1 x20 >= 0 ;
+1 x116 -1 x6 -1 x20 >= -1 ;
-1 x101 +1 x5 >= 0 ;
-1 x101 +1 x21 >= 0 ;
+1 x101 -1 x5 -1 x21 >= -1 ;
-1 x86 +1 x4 >= 0 ;
-1 x86 +1 x22 >= 0 ;
+1 x86 -1 x4 -1 x22 >= -1 ;
-1 x71 +1 x3 >= 0 ;
-1 x71 +1 x23 >= 0 ;
+1 x71 -1 x3 -1 x23 >= -1 ;
-1 x56 +1 x2 >= 0 ;
-1 x56 +1 x24 >= 0 ;
+1 x56 -1 x2 -1 x24 >= -1 ;
-1 x41 +1 x1 >= 0 ;
-1 x41 +1 x25 >= 0 ;
+1 x41 -1 x1 -1 x25 >= -1 ;
+1 x714 -1 x177 = 0 ;
+2 x426 +1 x698 -1 x162 -1 x409 -1 x714 = 0 ;
+2 x410 +1 x682 -1 x147 -1 x393 -1 x698 = 0 ;
+2 x394 +1 x666 -1 x132 -1 x377 -1 x682 = 0 ;
+2 x378 +1 x650 -1 x117 -1 x361 -1 x666 = 0 ;
+2 x362 +1 x634 -1 x102 -1 x345 -1 x650 = 0 ;
+2 x346 +1 x618 -1 x87 -1 x329 -1 x634 = 0 ;
+2 x330 +1 x602 -1 x72 -1 x313 -1 x618 = 0 ;
+2 x314 +1 x586 -1 x57 -1 x297 -1 x602 = 0 ;
+2 x298 +1 x570 -1 x42 -1 x586 = 0 ;
+1 x570 -1 x842 = 0 ;
-1 x177 +1 x10 >= 0 ;
-1 x177 +1 x17 >= 0 ;
+1 x177 -1 x10 -1 x17 >= -1 ;
-1 x162 +1 x9 >= 0 ;
-1 x162 +1 x18 >= 0 ;
+1 x162 -1 x9 -1 x18 >= -1 ;
-1 x147 +1 x8 >= 0 ;
-1 x147 +1 x19 >= 0 ;
+1 x147 -1 x8 -1 x19 >= -1 ;
-1 x132 +1 x7 >= 0 ;
-1 x132 +1 x20 >= 0 ;
+1 x132 -1 x7 -1 x20 >= -1 ;
-1 x117 +1 x6 >= 0 ;
-1 x117 +1 x21 >= 0 ;
+1 x117 -1 x6 -1 x21 >= -1 ;
-1 x102 +1 x5 >= 0 ;
-1 x102 +1 x22 >= 0 ;
+1 x102 -1 x5 -1 x22 >= -1 ;
-1 x87 +1 x4 >= 0 ;
-1 x87 +1 x23 >= 0 ;
+1 x87 -1 x4 -1 x23 >= -1 ;
-1 x72 +1 x3 >= 0 ;
-1 x72 +1 x24 >= 0 ;
+1 x72 -1 x3 -1 x24 >= -1 ;
-1 x57 +1 x2 >= 0 ;
-1 x57 +1 x25 >= 0 ;
+1 x57 -1 x2 -1 x25 >= -1 ;
-1 x42 +1 x1 >= 0 ;
-1 x42 +1 x26 >= 0 ;
+1 x42 -1 x1 -1 x26 >= -1 ;
+1 x731 -1 x193 = 0 ;
+2 x443 +1 x715 -1 x178 -1 x426 -1 x731 = 0 ;
+2 x427 +1 x699 -1 x163 -1 x410 -1 x715 = 0 ;
+2 x411 +1 x683 -1 x148 -1 x394 -1 x699 = 0 ;
+2 x395 +1 x667 -1 x133 -1 x378 -1 x683 = 0 ;
+2 x379 +1 x651 -1 x118 -1 x362 -1 x667 = 0 ;
+2 x363 +1 x635 -1 x103 -1 x346 -1 x651 = 0 ;
+2 x347 +1 x619 -1 x88 -1 x330 -1 x635 = 0 ;
+2 x331 +1 x603 -1 x73 -1 x314 -1 x619 = 0 ;
+2 x315 +1 x587 -1 x58 -1 x298 -1 x603 = 0 ;
+2 x299 +1 x571 -1 x43 -1 x587 = 0 ;
+1 x571 -1 x843 = 0 ;
-1 x193 +1 x11 >= 0 ;
-1 x193 +1 x17 >= 0 ;
+1 x193 -1 x11 -1 x17 >= -1 ;
-1 x178 +1 x10 >= 0 ;
-1 x178 +1 x18 >= 0 ;
+1 x178 -1 x10 -1 x18 >= -1 ;
-1 x163 +1 x9 >= 0 ;
-1 x163 +1 x19 >= 0 ;
+1 x163 -1 x9 -1 x19 >= -1 ;
-1 x148 +1 x8 >= 0 ;
-1 x148 +1 x20 >= 0 ;
+1 x148 -1 x8 -1 x20 >= -1 ;
-1 x133 +1 x7 >= 0 ;
-1 x133 +1 x21 >= 0 ;
+1 x133 -1 x7 -1 x21 >= -1 ;
-1 x118 +1 x6 >= 0 ;
-1 x118 +1 x22 >= 0 ;
+1 x118 -1 x6 -1 x22 >= -1 ;
-1 x103 +1 x5 >= 0 ;
-1 x103 +1 x23 >= 0 ;
+1 x103 -1 x5 -1 x23 >= -1 ;
-1 x88 +1 x4 >= 0 ;
-1 x88 +1 x24 >= 0 ;
+1 x88 -1 x4 -1 x24 >= -1 ;
-1 x73 +1 x3 >= 0 ;
-1 x73 +1 x25 >= 0 ;
+1 x73 -1 x3 -1 x25 >= -1 ;
-1 x58 +1 x2 >= 0 ;
-1 x58 +1 x26 >= 0 ;
+1 x58 -1 x2 -1 x26 >= -1 ;
-1 x43 +1 x1 >= 0 ;
-1 x43 +1 x27 >= 0 ;
+1 x43 -1 x1 -1 x27 >= -1 ;
+1 x748 -1 x209 = 0 ;
+2 x460 +1 x732 -1 x194 -1 x443 -1 x748 = 0 ;
+2 x444 +1 x716 -1 x179 -1 x427 -1 x732 = 0 ;
+2 x428 +1 x700 -1 x164 -1 x411 -1 x716 = 0 ;
+2 x412 +1 x684 -1 x149 -1 x395 -1 x700 = 0 ;
+2 x396 +1 x668 -1 x134 -1 x379 -1 x684 = 0 ;
+2 x380 +1 x652 -1 x119 -1 x363 -1 x668 = 0 ;
+2 x364 +1 x636 -1 x104 -1 x347 -1 x652 = 0 ;
+2 x348 +1 x620 -1 x89 -1 x331 -1 x636 = 0 ;
+2 x332 +1 x604 -1 x74 -1 x315 -1 x620 = 0 ;
+2 x316 +1 x588 -1 x59 -1 x299 -1 x604 = 0 ;
+2 x300 +1 x572 -1 x44 -1 x588 = 0 ;
+1 x572 -1 x844 = 0 ;
-1 x209 +1 x12 >= 0 ;
-1 x209 +1 x17 >= 0 ;
+1 x209 -1 x12 -1 x17 >= -1 ;
-1 x194 +1 x11 >= 0 ;
-1 x194 +1 x18 >= 0 ;
+1 x194 -1 x11 -1 x18 >= -1 ;
-1 x179 +1 x10 >= 0 ;
-1 x179 +1 x19 >= 0 ;
+1 x179 -1 x10 -1 x19 >= -1 ;
-1 x164 +1 x9 >= 0 ;
-1 x164 +1 x20 >= 0 ;
+1 x164 -1 x9 -1 x20 >= -1 ;
-1 x149 +1 x8 >= 0 ;
-1 x149 +1 x21 >= 0 ;
+1 x149 -1 x8 -1 x21 >= -1 ;
-1 x134 +1 x7 >= 0 ;
-1 x134 +1 x22 >= 0 ;
+1 x134 -1 x7 -1 x22 >= -1 ;
-1 x119 +1 x6 >= 0 ;
-1 x119 +1 x23 >= 0 ;
+1 x119 -1 x6 -1 x23 >= -1 ;
-1 x104 +1 x5 >= 0 ;
-1 x104 +1 x24 >= 0 ;
+1 x104 -1 x5 -1 x24 >= -1 ;
-1 x89 +1 x4 >= 0 ;
-1 x89 +1 x25 >= 0 ;
+1 x89 -1 x4 -1 x25 >= -1 ;
-1 x74 +1 x3 >= 0 ;
-1 x74 +1 x26 >= 0 ;
+1 x74 -1 x3 -1 x26 >= -1 ;
-1 x59 +1 x2 >= 0 ;
-1 x59 +1 x27 >= 0 ;
+1 x59 -1 x2 -1 x27 >= -1 ;
-1 x44 +1 x1 >= 0 ;
-1 x44 +1 x28 >= 0 ;
+1 x44 -1 x1 -1 x28 >= -1 ;
+1 x765 -1 x225 = 0 ;
+2 x477 +1 x749 -1 x210 -1 x460 -1 x765 = 0 ;
+2 x461 +1 x733 -1 x195 -1 x444 -1 x749 = 0 ;
+2 x445 +1 x717 -1 x180 -1 x428 -1 x733 = 0 ;
+2 x429 +1 x701 -1 x165 -1 x412 -1 x717 = 0 ;
+2 x413 +1 x685 -1 x150 -1 x396 -1 x701 = 0 ;
+2 x397 +1 x669 -1 x135 -1 x380 -1 x685 = 0 ;
+2 x381 +1 x653 -1 x120 -1 x364 -1 x669 = 0 ;
+2 x365 +1 x637 -1 x105 -1 x348 -1 x653 = 0 ;
+2 x349 +1 x621 -1 x90 -1 x332 -1 x637 = 0 ;
+2 x333 +1 x605 -1 x75 -1 x316 -1 x621 = 0 ;
+2 x317 +1 x589 -1 x60 -1 x300 -1 x605 = 0 ;
+2 x301 +1 x573 -1 x45 -1 x589 = 0 ;
+1 x573 -1 x845 = 0 ;
-1 x225 +1 x13 >= 0 ;
-1 x225 +1 x17 >= 0 ;
+1 x225 -1 x13 -1 x17 >= -1 ;
-1 x210 +1 x12 >= 0 ;
-1 x210 +1 x18 >= 0 ;
+1 x210 -1 x12 -1 x18 >= -1 ;
-1 x195 +1 x11 >= 0 ;
-1 x195 +1 x19 >= 0 ;
+1 x195 -1 x11 -1 x19 >= -1 ;
-1 x180 +1 x10 >= 0 ;
-1 x180 +1 x20 >= 0 ;
+1 x180 -1 x10 -1 x20 >= -1 ;
-1 x165 +1 x9 >= 0 ;
-1 x165 +1 x21 >= 0 ;
+1 x165 -1 x9 -1 x21 >= -1 ;
-1 x150 +1 x8 >= 0 ;
-1 x150 +1 x22 >= 0 ;
+1 x150 -1 x8 -1 x22 >= -1 ;
-1 x135 +1 x7 >= 0 ;
-1 x135 +1 x23 >= 0 ;
+1 x135 -1 x7 -1 x23 >= -1 ;
-1 x120 +1 x6 >= 0 ;
-1 x120 +1 x24 >= 0 ;
+1 x120 -1 x6 -1 x24 >= -1 ;
-1 x105 +1 x5 >= 0 ;
-1 x105 +1 x25 >= 0 ;
+1 x105 -1 x5 -1 x25 >= -1 ;
-1 x90 +1 x4 >= 0 ;
-1 x90 +1 x26 >= 0 ;
+1 x90 -1 x4 -1 x26 >= -1 ;
-1 x75 +1 x3 >= 0 ;
-1 x75 +1 x27 >= 0 ;
+1 x75 -1 x3 -1 x27 >= -1 ;
-1 x60 +1 x2 >= 0 ;
-1 x60 +1 x28 >= 0 ;
+1 x60 -1 x2 -1 x28 >= -1 ;
-1 x45 +1 x1 >= 0 ;
-1 x45 +1 x29 >= 0 ;
+1 x45 -1 x1 -1 x29 >= -1 ;
+1 x782 -1 x241 = 0 ;
+2 x494 +1 x766 -1 x226 -1 x477 -1 x782 = 0 ;
+2 x478 +1 x750 -1 x211 -1 x461 -1 x766 = 0 ;
+2 x462 +1 x734 -1 x196 -1 x445 -1 x750 = 0 ;
+2 x446 +1 x718 -1 x181 -1 x429 -1 x734 = 0 ;
+2 x430 +1 x702 -1 x166 -1 x413 -1 x718 = 0 ;
+2 x414 +1 x686 -1 x151 -1 x397 -1 x702 = 0 ;
+2 x398 +1 x670 -1 x136 -1 x381 -1 x686 = 0 ;
+2 x382 +1 x654 -1 x121 -1 x365 -1 x670 = 0 ;
+2 x366 +1 x638 -1 x106 -1 x349 -1 x654 = 0 ;
+2 x350 +1 x622 -1 x91 -1 x333 -1 x638 = 0 ;
+2 x334 +1 x606 -1 x76 -1 x317 -1 x622 = 0 ;
+2 x318 +1 x590 -1 x61 -1 x301 -1 x606 = 0 ;
+2 x302 +1 x574 -1 x46 -1 x590 = 0 ;
+1 x574 -1 x846 = 0 ;
-1 x241 +1 x14 >= 0 ;
-1 x241 +1 x17 >= 0 ;
+1 x241 -1 x14 -1 x17 >= -1 ;
-1 x226 +1 x13 >= 0 ;
-1 x226 +1 x18 >= 0 ;
+1 x226 -1 x13 -1 x18 >= -1 ;
-1 x211 +1 x12 >= 0 ;
-1 x211 +1 x19 >= 0 ;
+1 x211 -1 x12 -1 x19 >= -1 ;
-1 x196 +1 x11 >= 0 ;
-1 x196 +1 x20 >= 0 ;
+1 x196 -1 x11 -1 x20 >= -1 ;
-1 x181 +1 x10 >= 0 ;
-1 x181 +1 x21 >= 0 ;
+1 x181 -1 x10 -1 x21 >= -1 ;
-1 x166 +1 x9 >= 0 ;
-1 x166 +1 x22 >= 0 ;
+1 x166 -1 x9 -1 x22 >= -1 ;
-1 x151 +1 x8 >= 0 ;
-1 x151 +1 x23 >= 0 ;
+1 x151 -1 x8 -1 x23 >= -1 ;
-1 x136 +1 x7 >= 0 ;
-1 x136 +1 x24 >= 0 ;
+1 x136 -1 x7 -1 x24 >= -1 ;
-1 x121 +1 x6 >= 0 ;
-1 x121 +1 x25 >= 0 ;
+1 x121 -1 x6 -1 x25 >= -1 ;
-1 x106 +1 x5 >= 0 ;
-1 x106 +1 x26 >= 0 ;
+1 x106 -1 x5 -1 x26 >= -1 ;
-1 x91 +1 x4 >= 0 ;
-1 x91 +1 x27 >= 0 ;
+1 x91 -1 x4 -1 x27 >= -1 ;
-1 x76 +1 x3 >= 0 ;
-1 x76 +1 x28 >= 0 ;
+1 x76 -1 x3 -1 x28 >= -1 ;
-1 x61 +1 x2 >= 0 ;
-1 x61 +1 x29 >= 0 ;
+1 x61 -1 x2 -1 x29 >= -1 ;
-1 x46 +1 x1 >= 0 ;
-1 x46 +1 x30 >= 0 ;
+1 x46 -1 x1 -1 x30 >= -1 ;
+1 x799 -1 x257 = 0 ;
+2 x511 +1 x783 -1 x242 -1 x494 -1 x799 = 0 ;
+2 x495 +1 x767 -1 x227 -1 x478 -1 x783 = 0 ;
+2 x479 +1 x751 -1 x212 -1 x462 -1 x767 = 0 ;
+2 x463 +1 x735 -1 x197 -1 x446 -1 x751 = 0 ;
+2 x447 +1 x719 -1 x182 -1 x430 -1 x735 = 0 ;
+2 x431 +1 x703 -1 x167 -1 x414 -1 x719 = 0 ;
+2 x415 +1 x687 -1 x152 -1 x398 -1 x703 = 0 ;
+2 x399 +1 x671 -1 x137 -1 x382 -1 x687 = 0 ;
+2 x383 +1 x655 -1 x122 -1 x366 -1 x671 = 0 ;
+2 x367 +1 x639 -1 x107 -1 x350 -1 x655 = 0 ;
+2 x351 +1 x623 -1 x92 -1 x334 -1 x639 = 0 ;
+2 x335 +1 x607 -1 x77 -1 x318 -1 x623 = 0 ;
+2 x319 +1 x591 -1 x62 -1 x302 -1 x607 = 0 ;
+2 x303 +1 x575 -1 x47 -1 x591 = 0 ;
+1 x575 -1 x847 = 0 ;
-1 x257 +1 x15 >= 0 ;
-1 x257 +1 x17 >= 0 ;
+1 x257 -1 x15 -1 x17 >= -1 ;
-1 x242 +1 x14 >= 0 ;
-1 x242 +1 x18 >= 0 ;
+1 x242 -1 x14 -1 x18 >= -1 ;
-1 x227 +1 x13 >= 0 ;
-1 x227 +1 x19 >= 0 ;
+1 x227 -1 x13 -1 x19 >= -1 ;
-1 x212 +1 x12 >= 0 ;
-1 x212 +1 x20 >= 0 ;
+1 x212 -1 x12 -1 x20 >= -1 ;
-1 x197 +1 x11 >= 0 ;
-1 x197 +1 x21 >= 0 ;
+1 x197 -1 x11 -1 x21 >= -1 ;
-1 x182 +1 x10 >= 0 ;
-1 x182 +1 x22 >= 0 ;
+1 x182 -1 x10 -1 x22 >= -1 ;
-1 x167 +1 x9 >= 0 ;
-1 x167 +1 x23 >= 0 ;
+1 x167 -1 x9 -1 x23 >= -1 ;
-1 x152 +1 x8 >= 0 ;
-1 x152 +1 x24 >= 0 ;
+1 x152 -1 x8 -1 x24 >= -1 ;
-1 x137 +1 x7 >= 0 ;
-1 x137 +1 x25 >= 0 ;
+1 x137 -1 x7 -1 x25 >= -1 ;
-1 x122 +1 x6 >= 0 ;
-1 x122 +1 x26 >= 0 ;
+1 x122 -1 x6 -1 x26 >= -1 ;
-1 x107 +1 x5 >= 0 ;
-1 x107 +1 x27 >= 0 ;
+1 x107 -1 x5 -1 x27 >= -1 ;
-1 x92 +1 x4 >= 0 ;
-1 x92 +1 x28 >= 0 ;
+1 x92 -1 x4 -1 x28 >= -1 ;
-1 x77 +1 x3 >= 0 ;
-1 x77 +1 x29 >= 0 ;
+1 x77 -1 x3 -1 x29 >= -1 ;
-1 x62 +1 x2 >= 0 ;
-1 x62 +1 x30 >= 0 ;
+1 x62 -1 x2 -1 x30 >= -1 ;
-1 x47 +1 x1 >= 0 ;
-1 x47 +1 x31 >= 0 ;
+1 x47 -1 x1 -1 x31 >= -1 ;
+1 x816 -1 x273 = 0 ;
+2 x528 +1 x800 -1 x258 -1 x511 -1 x816 = 0 ;
+2 x512 +1 x784 -1 x243 -1 x495 -1 x800 = 0 ;
+2 x496 +1 x768 -1 x228 -1 x479 -1 x784 = 0 ;
+2 x480 +1 x752 -1 x213 -1 x463 -1 x768 = 0 ;
+2 x464 +1 x736 -1 x198 -1 x447 -1 x752 = 0 ;
+2 x448 +1 x720 -1 x183 -1 x431 -1 x736 = 0 ;
+2 x432 +1 x704 -1 x168 -1 x415 -1 x720 = 0 ;
+2 x416 +1 x688 -1 x153 -1 x399 -1 x704 = 0 ;
+2 x400 +1 x672 -1 x138 -1 x383 -1 x688 = 0 ;
+2 x384 +1 x656 -1 x123 -1 x367 -1 x672 = 0 ;
+2 x368 +1 x640 -1 x108 -1 x351 -1 x656 = 0 ;
+2 x352 +1 x624 -1 x93 -1 x335 -1 x640 = 0 ;
+2 x336 +1 x608 -1 x78 -1 x319 -1 x624 = 0 ;
+2 x320 +1 x592 -1 x63 -1 x303 -1 x608 = 0 ;
+2 x304 +1 x576 -1 x48 -1 x592 = 0 ;
+1 x576 -1 x848 = 0 ;
-1 x273 +1 x16 >= 0 ;
-1 x273 +1 x17 >= 0 ;
+1 x273 -1 x16 -1 x17 >= -1 ;
-1 x258 +1 x15 >= 0 ;
-1 x258 +1 x18 >= 0 ;
+1 x258 -1 x15 -1 x18 >= -1 ;
-1 x243 +1 x14 >= 0 ;
-1 x243 +1 x19 >= 0 ;
+1 x243 -1 x14 -1 x19 >= -1 ;
-1 x228 +1 x13 >= 0 ;
-1 x228 +1 x20 >= 0 ;
+1 x228 -1 x13 -1 x20 >= -1 ;
-1 x213 +1 x12 >= 0 ;
-1 x213 +1 x21 >= 0 ;
+1 x213 -1 x12 -1 x21 >= -1 ;
-1 x198 +1 x11 >= 0 ;
-1 x198 +1 x22 >= 0 ;
+1 x198 -1 x11 -1 x22 >= -1 ;
-1 x183 +1 x10 >= 0 ;
-1 x183 +1 x23 >= 0 ;
+1 x183 -1 x10 -1 x23 >= -1 ;
-1 x168 +1 x9 >= 0 ;
-1 x168 +1 x24 >= 0 ;
+1 x168 -1 x9 -1 x24 >= -1 ;
-1 x153 +1 x8 >= 0 ;
-1 x153 +1 x25 >= 0 ;
+1 x153 -1 x8 -1 x25 >= -1 ;
-1 x138 +1 x7 >= 0 ;
-1 x138 +1 x26 >= 0 ;
+1 x138 -1 x7 -1 x26 >= -1 ;
-1 x123 +1 x6 >= 0 ;
-1 x123 +1 x27 >= 0 ;
+1 x123 -1 x6 -1 x27 >= -1 ;
-1 x108 +1 x5 >= 0 ;
-1 x108 +1 x28 >= 0 ;
+1 x108 -1 x5 -1 x28 >= -1 ;
-1 x93 +1 x4 >= 0 ;
-1 x93 +1 x29 >= 0 ;
+1 x93 -1 x4 -1 x29 >= -1 ;
-1 x78 +1 x3 >= 0 ;
-1 x78 +1 x30 >= 0 ;
+1 x78 -1 x3 -1 x30 >= -1 ;
-1 x63 +1 x2 >= 0 ;
-1 x63 +1 x31 >= 0 ;
+1 x63 -1 x2 -1 x31 >= -1 ;
-1 x48 +1 x1 >= 0 ;
-1 x48 +1 x32 >= 0 ;
+1 x48 -1 x1 -1 x32 >= -1 ;
+2 x545 +1 x817 -1 x274 -1 x528 = 0 ;
+2 x529 +1 x801 -1 x259 -1 x512 -1 x817 = 0 ;
+2 x513 +1 x785 -1 x244 -1 x496 -1 x801 = 0 ;
+2 x497 +1 x769 -1 x229 -1 x480 -1 x785 = 0 ;
+2 x481 +1 x753 -1 x214 -1 x464 -1 x769 = 0 ;
+2 x465 +1 x737 -1 x199 -1 x448 -1 x753 = 0 ;
+2 x449 +1 x721 -1 x184 -1 x432 -1 x737 = 0 ;
+2 x433 +1 x705 -1 x169 -1 x416 -1 x721 = 0 ;
+2 x417 +1 x689 -1 x154 -1 x400 -1 x705 = 0 ;
+2 x401 +1 x673 -1 x139 -1 x384 -1 x689 = 0 ;
+2 x385 +1 x657 -1 x124 -1 x368 -1 x673 = 0 ;
+2 x369 +1 x641 -1 x109 -1 x352 -1 x657 = 0 ;
+2 x353 +1 x625 -1 x94 -1 x336 -1 x641 = 0 ;
+2 x337 +1 x609 -1 x79 -1 x320 -1 x625 = 0 ;
+2 x321 +1 x593 -1 x64 -1 x304 -1 x609 = 0 ;
+1 x593 -1 x849 = 0 ;
-1 x274 +1 x16 >= 0 ;
-1 x274 +1 x18 >= 0 ;
+1 x274 -1 x16 -1 x18 >= -1 ;
-1 x259 +1 x15 >= 0 ;
-1 x259 +1 x19 >= 0 ;
+1 x259 -1 x15 -1 x19 >= -1 ;
-1 x244 +1 x14 >= 0 ;
-1 x244 +1 x20 >= 0 ;
+1 x244 -1 x14 -1 x20 >= -1 ;
-1 x229 +1 x13 >= 0 ;
-1 x229 +1 x21 >= 0 ;
+1 x229 -1 x13 -1 x21 >= -1 ;
-1 x214 +1 x12 >= 0 ;
-1 x214 +1 x22 >= 0 ;
+1 x214 -1 x12 -1 x22 >= -1 ;
-1 x199 +1 x11 >= 0 ;
-1 x199 +1 x23 >= 0 ;
+1 x199 -1 x11 -1 x23 >= -1 ;
-1 x184 +1 x10 >= 0 ;
-1 x184 +1 x24 >= 0 ;
+1 x184 -1 x10 -1 x24 >= -1 ;
-1 x169 +1 x9 >= 0 ;
-1 x169 +1 x25 >= 0 ;
+1 x169 -1 x9 -1 x25 >= -1 ;
-1 x154 +1 x8 >= 0 ;
-1 x154 +1 x26 >= 0 ;
+1 x154 -1 x8 -1 x26 >= -1 ;
-1 x139 +1 x7 >= 0 ;
-1 x139 +1 x27 >= 0 ;
+1 x139 -1 x7 -1 x27 >= -1 ;
-1 x124 +1 x6 >= 0 ;
-1 x124 +1 x28 >= 0 ;
+1 x124 -1 x6 -1 x28 >= -1 ;
-1 x109 +1 x5 >= 0 ;
-1 x109 +1 x29 >= 0 ;
+1 x109 -1 x5 -1 x29 >= -1 ;
-1 x94 +1 x4 >= 0 ;
-1 x94 +1 x30 >= 0 ;
+1 x94 -1 x4 -1 x30 >= -1 ;
-1 x79 +1 x3 >= 0 ;
-1 x79 +1 x31 >= 0 ;
+1 x79 -1 x3 -1 x31 >= -1 ;
-1 x64 +1 x2 >= 0 ;
-1 x64 +1 x32 >= 0 ;
+1 x64 -1 x2 -1 x32 >= -1 ;
+2 x546 +1 x818 -1 x275 -1 x529 -1 x545 = 0 ;
+2 x530 +1 x802 -1 x260 -1 x513 -1 x818 = 0 ;
+2 x514 +1 x786 -1 x245 -1 x497 -1 x802 = 0 ;
+2 x498 +1 x770 -1 x230 -1 x481 -1 x786 = 0 ;
+2 x482 +1 x754 -1 x215 -1 x465 -1 x770 = 0 ;
+2 x466 +1 x738 -1 x200 -1 x449 -1 x754 = 0 ;
+2 x450 +1 x722 -1 x185 -1 x433 -1 x738 = 0 ;
+2 x434 +1 x706 -1 x170 -1 x417 -1 x722 = 0 ;
+2 x418 +1 x690 -1 x155 -1 x401 -1 x706 = 0 ;
+2 x402 +1 x674 -1 x140 -1 x385 -1 x690 = 0 ;
+2 x386 +1 x658 -1 x125 -1 x369 -1 x674 = 0 ;
+2 x370 +1 x642 -1 x110 -1 x353 -1 x658 = 0 ;
+2 x354 +1 x626 -1 x95 -1 x337 -1 x642 = 0 ;
+2 x338 +1 x610 -1 x80 -1 x321 -1 x626 = 0 ;
+1 x610 -1 x850 = 0 ;
-1 x275 +1 x16 >= 0 ;
-1 x275 +1 x19 >= 0 ;
+1 x275 -1 x16 -1 x19 >= -1 ;
-1 x260 +1 x15 >= 0 ;
-1 x260 +1 x20 >= 0 ;
+1 x260 -1 x15 -1 x20 >= -1 ;
-1 x245 +1 x14 >= 0 ;
-1 x245 +1 x21 >= 0 ;
+1 x245 -1 x14 -1 x21 >= -1 ;
-1 x230 +1 x13 >= 0 ;
-1 x230 +1 x22 >= 0 ;
+1 x230 -1 x13 -1 x22 >= -1 ;
-1 x215 +1 x12 >= 0 ;
-1 x215 +1 x23 >= 0 ;
+1 x215 -1 x12 -1 x23 >= -1 ;
-1 x200 +1 x11 >= 0 ;
-1 x200 +1 x24 >= 0 ;
+1 x200 -1 x11 -1 x24 >= -1 ;
-1 x185 +1 x10 >= 0 ;
-1 x185 +1 x25 >= 0 ;
+1 x185 -1 x10 -1 x25 >= -1 ;
-1 x170 +1 x9 >= 0 ;
-1 x170 +1 x26 >= 0 ;
+1 x170 -1 x9 -1 x26 >= -1 ;
-1 x155 +1 x8 >= 0 ;
-1 x155 +1 x27 >= 0 ;
+1 x155 -1 x8 -1 x27 >= -1 ;
-1 x140 +1 x7 >= 0 ;
-1 x140 +1 x28 >= 0 ;
+1 x140 -1 x7 -1 x28 >= -1 ;
-1 x125 +1 x6 >= 0 ;
-1 x125 +1 x29 >= 0 ;
+1 x125 -1 x6 -1 x29 >= -1 ;
-1 x110 +1 x5 >= 0 ;
-1 x110 +1 x30 >= 0 ;
+1 x110 -1 x5 -1 x30 >= -1 ;
-1 x95 +1 x4 >= 0 ;
-1 x95 +1 x31 >= 0 ;
+1 x95 -1 x4 -1 x31 >= -1 ;
-1 x80 +1 x3 >= 0 ;
-1 x80 +1 x32 >= 0 ;
+1 x80 -1 x3 -1 x32 >= -1 ;
+2 x547 +1 x819 -1 x276 -1 x530 -1 x546 = 0 ;
+2 x531 +1 x803 -1 x261 -1 x514 -1 x819 = 0 ;
+2 x515 +1 x787 -1 x246 -1 x498 -1 x803 = 0 ;
+2 x499 +1 x771 -1 x231 -1 x482 -1 x787 = 0 ;
+2 x483 +1 x755 -1 x216 -1 x466 -1 x771 = 0 ;
+2 x467 +1 x739 -1 x201 -1 x450 -1 x755 = 0 ;
+2 x451 +1 x723 -1 x186 -1 x434 -1 x739 = 0 ;
+2 x435 +1 x707 -1 x171 -1 x418 -1 x723 = 0 ;
+2 x419 +1 x691 -1 x156 -1 x402 -1 x707 = 0 ;
+2 x403 +1 x675 -1 x141 -1 x386 -1 x691 = 0 ;
+2 x387 +1 x659 -1 x126 -1 x370 -1 x675 = 0 ;
+2 x371 +1 x643 -1 x111 -1 x354 -1 x659 = 0 ;
+2 x355 +1 x627 -1 x96 -1 x338 -1 x643 = 0 ;
+1 x627 -1 x851 = 0 ;
-1 x276 +1 x16 >= 0 ;
-1 x276 +1 x20 >= 0 ;
+1 x276 -1 x16 -1 x20 >= -1 ;
-1 x261 +1 x15 >= 0 ;
-1 x261 +1 x21 >= 0 ;
+1 x261 -1 x15 -1 x21 >= -1 ;
-1 x246 +1 x14 >= 0 ;
-1 x246 +1 x22 >= 0 ;
+1 x246 -1 x14 -1 x22 >= -1 ;
-1 x231 +1 x13 >= 0 ;
-1 x231 +1 x23 >= 0 ;
+1 x231 -1 x13 -1 x23 >= -1 ;
-1 x216 +1 x12 >= 0 ;
-1 x216 +1 x24 >= 0 ;
+1 x216 -1 x12 -1 x24 >= -1 ;
-1 x201 +1 x11 >= 0 ;
-1 x201 +1 x25 >= 0 ;
+1 x201 -1 x11 -1 x25 >= -1 ;
-1 x186 +1 x10 >= 0 ;
-1 x186 +1 x26 >= 0 ;
+1 x186 -1 x10 -1 x26 >= -1 ;
-1 x171 +1 x9 >= 0 ;
-1 x171 +1 x27 >= 0 ;
+1 x171 -1 x9 -1 x27 >= -1 ;
-1 x156 +1 x8 >= 0 ;
-1 x156 +1 x28 >= 0 ;
+1 x156 -1 x8 -1 x28 >= -1 ;
-1 x141 +1 x7 >= 0 ;
-1 x141 +1 x29 >= 0 ;
+1 x141 -1 x7 -1 x29 >= -1 ;
-1 x126 +1 x6 >= 0 ;
-1 x126 +1 x30 >= 0 ;
+1 x126 -1 x6 -1 x30 >= -1 ;
-1 x111 +1 x5 >= 0 ;
-1 x111 +1 x31 >= 0 ;
+1 x111 -1 x5 -1 x31 >= -1 ;
-1 x96 +1 x4 >= 0 ;
-1 x96 +1 x32 >= 0 ;
+1 x96 -1 x4 -1 x32 >= -1 ;
+2 x548 +1 x820 -1 x277 -1 x531 -1 x547 = 0 ;
+2 x532 +1 x804 -1 x262 -1 x515 -1 x820 = 0 ;
+2 x516 +1 x788 -1 x247 -1 x499 -1 x804 = 0 ;
+2 x500 +1 x772 -1 x232 -1 x483 -1 x788 = 0 ;
+2 x484 +1 x756 -1 x217 -1 x467 -1 x772 = 0 ;
+2 x468 +1 x740 -1 x202 -1 x451 -1 x756 = 0 ;
+2 x452 +1 x724 -1 x187 -1 x435 -1 x740 = 0 ;
+2 x436 +1 x708 -1 x172 -1 x419 -1 x724 = 0 ;
+2 x420 +1 x692 -1 x157 -1 x403 -1 x708 = 0 ;
+2 x404 +1 x676 -1 x142 -1 x387 -1 x692 = 0 ;
+2 x388 +1 x660 -1 x127 -1 x371 -1 x676 = 0 ;
+2 x372 +1 x644 -1 x112 -1 x355 -1 x660 = 0 ;
+1 x644 -1 x852 = 0 ;
-1 x277 +1 x16 >= 0 ;
-1 x277 +1 x21 >= 0 ;
+1 x277 -1 x16 -1 x21 >= -1 ;
-1 x262 +1 x15 >= 0 ;
-1 x262 +1 x22 >= 0 ;
+1 x262 -1 x15 -1 x22 >= -1 ;
-1 x247 +1 x14 >= 0 ;
-1 x247 +1 x23 >= 0 ;
+1 x247 -1 x14 -1 x23 >= -1 ;
-1 x232 +1 x13 >= 0 ;
-1 x232 +1 x24 >= 0 ;
+1 x232 -1 x13 -1 x24 >= -1 ;
-1 x217 +1 x12 >= 0 ;
-1 x217 +1 x25 >= 0 ;
+1 x217 -1 x12 -1 x25 >= -1 ;
-1 x202 +1 x11 >= 0 ;
-1 x202 +1 x26 >= 0 ;
+1 x202 -1 x11 -1 x26 >= -1 ;
-1 x187 +1 x10 >= 0 ;
-1 x187 +1 x27 >= 0 ;
+1 x187 -1 x10 -1 x27 >= -1 ;
-1 x172 +1 x9 >= 0 ;
-1 x172 +1 x28 >= 0 ;
+1 x172 -1 x9 -1 x28 >= -1 ;
-1 x157 +1 x8 >= 0 ;
-1 x157 +1 x29 >= 0 ;
+1 x157 -1 x8 -1 x29 >= -1 ;
-1 x142 +1 x7 >= 0 ;
-1 x142 +1 x30 >= 0 ;
+1 x142 -1 x7 -1 x30 >= -1 ;
-1 x127 +1 x6 >= 0 ;
-1 x127 +1 x31 >= 0 ;
+1 x127 -1 x6 -1 x31 >= -1 ;
-1 x112 +1 x5 >= 0 ;
-1 x112 +1 x32 >= 0 ;
+1 x112 -1 x5 -1 x32 >= -1 ;
+2 x549 +1 x821 -1 x278 -1 x532 -1 x548 = 0 ;
+2 x533 +1 x805 -1 x263 -1 x516 -1 x821 = 0 ;
+2 x517 +1 x789 -1 x248 -1 x500 -1 x805 = 0 ;
+2 x501 +1 x773 -1 x233 -1 x484 -1 x789 = 0 ;
+2 x485 +1 x757 -1 x218 -1 x468 -1 x773 = 0 ;
+2 x469 +1 x741 -1 x203 -1 x452 -1 x757 = 0 ;
+2 x453 +1 x725 -1 x188 -1 x436 -1 x741 = 0 ;
+2 x437 +1 x709 -1 x173 -1 x420 -1 x725 = 0 ;
+2 x421 +1 x693 -1 x158 -1 x404 -1 x709 = 0 ;
+2 x405 +1 x677 -1 x143 -1 x388 -1 x693 = 0 ;
+2 x389 +1 x661 -1 x128 -1 x372 -1 x677 = 0 ;
+1 x661 -1 x853 = 0 ;
-1 x278 +1 x16 >= 0 ;
-1 x278 +1 x22 >= 0 ;
+1 x278 -1 x16 -1 x22 >= -1 ;
-1 x263 +1 x15 >= 0 ;
-1 x263 +1 x23 >= 0 ;
+1 x263 -1 x15 -1 x23 >= -1 ;
-1 x248 +1 x14 >= 0 ;
-1 x248 +1 x24 >= 0 ;
+1 x248 -1 x14 -1 x24 >= -1 ;
-1 x233 +1 x13 >= 0 ;
-1 x233 +1 x25 >= 0 ;
+1 x233 -1 x13 -1 x25 >= -1 ;
-1 x218 +1 x12 >= 0 ;
-1 x218 +1 x26 >= 0 ;
+1 x218 -1 x12 -1 x26 >= -1 ;
-1 x203 +1 x11 >= 0 ;
-1 x203 +1 x27 >= 0 ;
+1 x203 -1 x11 -1 x27 >= -1 ;
-1 x188 +1 x10 >= 0 ;
-1 x188 +1 x28 >= 0 ;
+1 x188 -1 x10 -1 x28 >= -1 ;
-1 x173 +1 x9 >= 0 ;
-1 x173 +1 x29 >= 0 ;
+1 x173 -1 x9 -1 x29 >= -1 ;
-1 x158 +1 x8 >= 0 ;
-1 x158 +1 x30 >= 0 ;
+1 x158 -1 x8 -1 x30 >= -1 ;
-1 x143 +1 x7 >= 0 ;
-1 x143 +1 x31 >= 0 ;
+1 x143 -1 x7 -1 x31 >= -1 ;
-1 x128 +1 x6 >= 0 ;
-1 x128 +1 x32 >= 0 ;
+1 x128 -1 x6 -1 x32 >= -1 ;
+2 x550 +1 x822 -1 x279 -1 x533 -1 x549 = 0 ;
+2 x534 +1 x806 -1 x264 -1 x517 -1 x822 = 0 ;
+2 x518 +1 x790 -1 x249 -1 x501 -1 x806 = 0 ;
+2 x502 +1 x774 -1 x234 -1 x485 -1 x790 = 0 ;
+2 x486 +1 x758 -1 x219 -1 x469 -1 x774 = 0 ;
+2 x470 +1 x742 -1 x204 -1 x453 -1 x758 = 0 ;
+2 x454 +1 x726 -1 x189 -1 x437 -1 x742 = 0 ;
+2 x438 +1 x710 -1 x174 -1 x421 -1 x726 = 0 ;
+2 x422 +1 x694 -1 x159 -1 x405 -1 x710 = 0 ;
+2 x406 +1 x678 -1 x144 -1 x389 -1 x694 = 0 ;
+1 x678 -1 x854 = 0 ;
-1 x279 +1 x16 >= 0 ;
-1 x279 +1 x23 >= 0 ;
+1 x279 -1 x16 -1 x23 >= -1 ;
-1 x264 +1 x15 >= 0 ;
-1 x264 +1 x24 >= 0 ;
+1 x264 -1 x15 -1 x24 >= -1 ;
-1 x249 +1 x14 >= 0 ;
-1 x249 +1 x25 >= 0 ;
+1 x249 -1 x14 -1 x25 >= -1 ;
-1 x234 +1 x13 >= 0 ;
-1 x234 +1 x26 >= 0 ;
+1 x234 -1 x13 -1 x26 >= -1 ;
-1 x219 +1 x12 >= 0 ;
-1 x219 +1 x27 >= 0 ;
+1 x219 -1 x12 -1 x27 >= -1 ;
-1 x204 +1 x11 >= 0 ;
-1 x204 +1 x28 >= 0 ;
+1 x204 -1 x11 -1 x28 >= -1 ;
-1 x189 +1 x10 >= 0 ;
-1 x189 +1 x29 >= 0 ;
+1 x189 -1 x10 -1 x29 >= -1 ;
-1 x174 +1 x9 >= 0 ;
-1 x174 +1 x30 >= 0 ;
+1 x174 -1 x9 -1 x30 >= -1 ;
-1 x159 +1 x8 >= 0 ;
-1 x159 +1 x31 >= 0 ;
+1 x159 -1 x8 -1 x31 >= -1 ;
-1 x144 +1 x7 >= 0 ;
-1 x144 +1 x32 >= 0 ;
+1 x144 -1 x7 -1 x32 >= -1 ;
+2 x551 +1 x823 -1 x280 -1 x534 -1 x550 = 0 ;
+2 x535 +1 x807 -1 x265 -1 x518 -1 x823 = 0 ;
+2 x519 +1 x791 -1 x250 -1 x502 -1 x807 = 0 ;
+2 x503 +1 x775 -1 x235 -1 x486 -1 x791 = 0 ;
+2 x487 +1 x759 -1 x220 -1 x470 -1 x775 = 0 ;
+2 x471 +1 x743 -1 x205 -1 x454 -1 x759 = 0 ;
+2 x455 +1 x727 -1 x190 -1 x438 -1 x743 = 0 ;
+2 x439 +1 x711 -1 x175 -1 x422 -1 x727 = 0 ;
+2 x423 +1 x695 -1 x160 -1 x406 -1 x711 = 0 ;
+1 x695 -1 x855 = 0 ;
-1 x280 +1 x16 >= 0 ;
-1 x280 +1 x24 >= 0 ;
+1 x280 -1 x16 -1 x24 >= -1 ;
-1 x265 +1 x15 >= 0 ;
-1 x265 +1 x25 >= 0 ;
+1 x265 -1 x15 -1 x25 >= -1 ;
-1 x250 +1 x14 >= 0 ;
-1 x250 +1 x26 >= 0 ;
+1 x250 -1 x14 -1 x26 >= -1 ;
-1 x235 +1 x13 >= 0 ;
-1 x235 +1 x27 >= 0 ;
+1 x235 -1 x13 -1 x27 >= -1 ;
-1 x220 +1 x12 >= 0 ;
-1 x220 +1 x28 >= 0 ;
+1 x220 -1 x12 -1 x28 >= -1 ;
-1 x205 +1 x11 >= 0 ;
-1 x205 +1 x29 >= 0 ;
+1 x205 -1 x11 -1 x29 >= -1 ;
-1 x190 +1 x10 >= 0 ;
-1 x190 +1 x30 >= 0 ;
+1 x190 -1 x10 -1 x30 >= -1 ;
-1 x175 +1 x9 >= 0 ;
-1 x175 +1 x31 >= 0 ;
+1 x175 -1 x9 -1 x31 >= -1 ;
-1 x160 +1 x8 >= 0 ;
-1 x160 +1 x32 >= 0 ;
+1 x160 -1 x8 -1 x32 >= -1 ;
+2 x552 +1 x824 -1 x281 -1 x535 -1 x551 = 0 ;
+2 x536 +1 x808 -1 x266 -1 x519 -1 x824 = 0 ;
+2 x520 +1 x792 -1 x251 -1 x503 -1 x808 = 0 ;
+2 x504 +1 x776 -1 x236 -1 x487 -1 x792 = 0 ;
+2 x488 +1 x760 -1 x221 -1 x471 -1 x776 = 0 ;
+2 x472 +1 x744 -1 x206 -1 x455 -1 x760 = 0 ;
+2 x456 +1 x728 -1 x191 -1 x439 -1 x744 = 0 ;
+2 x440 +1 x712 -1 x176 -1 x423 -1 x728 = 0 ;
+1 x712 -1 x856 = 0 ;
-1 x281 +1 x16 >= 0 ;
-1 x281 +1 x25 >= 0 ;
+1 x281 -1 x16 -1 x25 >= -1 ;
-1 x266 +1 x15 >= 0 ;
-1 x266 +1 x26 >= 0 ;
+1 x266 -1 x15 -1 x26 >= -1 ;
-1 x251 +1 x14 >= 0 ;
-1 x251 +1 x27 >= 0 ;
+1 x251 -1 x14 -1 x27 >= -1 ;
-1 x236 +1 x13 >= 0 ;
-1 x236 +1 x28 >= 0 ;
+1 x236 -1 x13 -1 x28 >= -1 ;
-1 x221 +1 x12 >= 0 ;
-1 x221 +1 x29 >= 0 ;
+1 x221 -1 x12 -1 x29 >= -1 ;
-1 x206 +1 x11 >= 0 ;
-1 x206 +1 x30 >= 0 ;
+1 x206 -1 x11 -1 x30 >= -1 ;
-1 x191 +1 x10 >= 0 ;
-1 x191 +1 x31 >= 0 ;
+1 x191 -1 x10 -1 x31 >= -1 ;
-1 x176 +1 x9 >= 0 ;
-1 x176 +1 x32 >= 0 ;
+1 x176 -1 x9 -1 x32 >= -1 ;
+2 x553 +1 x825 -1 x282 -1 x536 -1 x552 = 0 ;
+2 x537 +1 x809 -1 x267 -1 x520 -1 x825 = 0 ;
+2 x521 +1 x793 -1 x252 -1 x504 -1 x809 = 0 ;
+2 x505 +1 x777 -1 x237 -1 x488 -1 x793 = 0 ;
+2 x489 +1 x761 -1 x222 -1 x472 -1 x777 = 0 ;
+2 x473 +1 x745 -1 x207 -1 x456 -1 x761 = 0 ;
+2 x457 +1 x729 -1 x192 -1 x440 -1 x745 = 0 ;
+1 x729 -1 x857 = 0 ;
-1 x282 +1 x16 >= 0 ;
-1 x282 +1 x26 >= 0 ;
+1 x282 -1 x16 -1 x26 >= -1 ;
-1 x267 +1 x15 >= 0 ;
-1 x267 +1 x27 >= 0 ;
+1 x267 -1 x15 -1 x27 >= -1 ;
-1 x252 +1 x14 >= 0 ;
-1 x252 +1 x28 >= 0 ;
+1 x252 -1 x14 -1 x28 >= -1 ;
-1 x237 +1 x13 >= 0 ;
-1 x237 +1 x29 >= 0 ;
+1 x237 -1 x13 -1 x29 >= -1 ;
-1 x222 +1 x12 >= 0 ;
-1 x222 +1 x30 >= 0 ;
+1 x222 -1 x12 -1 x30 >= -1 ;
-1 x207 +1 x11 >= 0 ;
-1 x207 +1 x31 >= 0 ;
+1 x207 -1 x11 -1 x31 >= -1 ;
-1 x192 +1 x10 >= 0 ;
-1 x192 +1 x32 >= 0 ;
+1 x192 -1 x10 -1 x32 >= -1 ;
+2 x554 +1 x826 -1 x283 -1 x537 -1 x553 = 0 ;
+2 x538 +1 x810 -1 x268 -1 x521 -1 x826 = 0 ;
+2 x522 +1 x794 -1 x253 -1 x505 -1 x810 = 0 ;
+2 x506 +1 x778 -1 x238 -1 x489 -1 x794 = 0 ;
+2 x490 +1 x762 -1 x223 -1 x473 -1 x778 = 0 ;
+2 x474 +1 x746 -1 x208 -1 x457 -1 x762 = 0 ;
+1 x746 -1 x858 = 0 ;
-1 x283 +1 x16 >= 0 ;
-1 x283 +1 x27 >= 0 ;
+1 x283 -1 x16 -1 x27 >= -1 ;
-1 x268 +1 x15 >= 0 ;
-1 x268 +1 x28 >= 0 ;
+1 x268 -1 x15 -1 x28 >= -1 ;
-1 x253 +1 x14 >= 0 ;
-1 x253 +1 x29 >= 0 ;
+1 x253 -1 x14 -1 x29 >= -1 ;
-1 x238 +1 x13 >= 0 ;
-1 x238 +1 x30 >= 0 ;
+1 x238 -1 x13 -1 x30 >= -1 ;
-1 x223 +1 x12 >= 0 ;
-1 x223 +1 x31 >= 0 ;
+1 x223 -1 x12 -1 x31 >= -1 ;
-1 x208 +1 x11 >= 0 ;
-1 x208 +1 x32 >= 0 ;
+1 x208 -1 x11 -1 x32 >= -1 ;
+2 x555 +1 x827 -1 x284 -1 x538 -1 x554 = 0 ;
+2 x539 +1 x811 -1 x269 -1 x522 -1 x827 = 0 ;
+2 x523 +1 x795 -1 x254 -1 x506 -1 x811 = 0 ;
+2 x507 +1 x779 -1 x239 -1 x490 -1 x795 = 0 ;
+2 x491 +1 x763 -1 x224 -1 x474 -1 x779 = 0 ;
+1 x763 -1 x859 = 0 ;
-1 x284 +1 x16 >= 0 ;
-1 x284 +1 x28 >= 0 ;
+1 x284 -1 x16 -1 x28 >= -1 ;
-1 x269 +1 x15 >= 0 ;
-1 x269 +1 x29 >= 0 ;
+1 x269 -1 x15 -1 x29 >= -1 ;
-1 x254 +1 x14 >= 0 ;
-1 x254 +1 x30 >= 0 ;
+1 x254 -1 x14 -1 x30 >= -1 ;
-1 x239 +1 x13 >= 0 ;
-1 x239 +1 x31 >= 0 ;
+1 x239 -1 x13 -1 x31 >= -1 ;
-1 x224 +1 x12 >= 0 ;
-1 x224 +1 x32 >= 0 ;
+1 x224 -1 x12 -1 x32 >= -1 ;
+2 x556 +1 x828 -1 x285 -1 x539 -1 x555 = 0 ;
+2 x540 +1 x812 -1 x270 -1 x523 -1 x828 = 0 ;
+2 x524 +1 x796 -1 x255 -1 x507 -1 x812 = 0 ;
+2 x508 +1 x780 -1 x240 -1 x491 -1 x796 = 0 ;
+1 x780 -1 x860 = 0 ;
-1 x285 +1 x16 >= 0 ;
-1 x285 +1 x29 >= 0 ;
+1 x285 -1 x16 -1 x29 >= -1 ;
-1 x270 +1 x15 >= 0 ;
-1 x270 +1 x30 >= 0 ;
+1 x270 -1 x15 -1 x30 >= -1 ;
-1 x255 +1 x14 >= 0 ;
-1 x255 +1 x31 >= 0 ;
+1 x255 -1 x14 -1 x31 >= -1 ;
-1 x240 +1 x13 >= 0 ;
-1 x240 +1 x32 >= 0 ;
+1 x240 -1 x13 -1 x32 >= -1 ;
+2 x557 +1 x829 -1 x286 -1 x540 -1 x556 = 0 ;
+2 x541 +1 x813 -1 x271 -1 x524 -1 x829 = 0 ;
+2 x525 +1 x797 -1 x256 -1 x508 -1 x813 = 0 ;
+1 x797 -1 x861 = 0 ;
-1 x286 +1 x16 >= 0 ;
-1 x286 +1 x30 >= 0 ;
+1 x286 -1 x16 -1 x30 >= -1 ;
-1 x271 +1 x15 >= 0 ;
-1 x271 +1 x31 >= 0 ;
+1 x271 -1 x15 -1 x31 >= -1 ;
-1 x256 +1 x14 >= 0 ;
-1 x256 +1 x32 >= 0 ;
+1 x256 -1 x14 -1 x32 >= -1 ;
+2 x558 +1 x830 -1 x287 -1 x541 -1 x557 = 0 ;
+2 x542 +1 x814 -1 x272 -1 x525 -1 x830 = 0 ;
+1 x814 -1 x862 = 0 ;
-1 x287 +1 x16 >= 0 ;
-1 x287 +1 x31 >= 0 ;
+1 x287 -1 x16 -1 x31 >= -1 ;
-1 x272 +1 x15 >= 0 ;
-1 x272 +1 x32 >= 0 ;
+1 x272 -1 x15 -1 x32 >= -1 ;
+2 x559 +1 x831 -1 x288 -1 x542 -1 x558 = 0 ;
+1 x831 -1 x863 = 0 ;
-1 x288 +1 x16 >= 0 ;
-1 x288 +1 x32 >= 0 ;
+1 x288 -1 x16 -1 x32 >= -1 ;
+1 x559 -1 x864 = 0 ;
